 &control
    calculation = 'scf',
    prefix='diamond', 
    pseudo_dir = '/home/attacc/SOFTWARE/PSEUDO_PWSCF/',
    wf_collect=.true.,
    verbosity ='high'
 /
 &system
    ibrav=  2, 
    celldm(1) =6.74, 
    nat=  2, 
    ntyp= 1, 
    ecutwfc = 70
     
 /
 &electrons
   conv_thr = 1.0d-9
 /
ATOMIC_SPECIES
 C 12.0107 C.pz-vbc.UPF
ATOMIC_POSITIONS {alat}
 C 0 0  0 
 C 0.25 0.25  0.25 
K_POINTS {automatic}
  6 6 6 0 0 0
