&input
 fildyn='lih.dynG',
 asr='simple',
 fileig='lih.eig'
/

