lih_phonons
&inputph
  tr2_ph=1.0d-12,
  amass(1)=1.00794
  amass(2)=6.941
  prefix='lih',
  outdir='./',
  fildyn='lih.dynG'
  trans=.true.
 /
0.0 0.0 0.0
