mos2_phonons
&inputph
  tr2_ph=1.0d-12,
  amass(1)=1.00794
  amass(2)=6.941
  prefix='lih',
  outdir='./',
  fildyn='lih.dynG'
  ldisp=.true.
  nq1=2, nq2=2, nq3=2
 /
