&control
          pseudo_dir = '/home/attaccalite/SOFTWARE/PSEUDO_PWSCF/',
              prefix = 'diamond_s'
              outdir = './'
          wf_collect = .true.
         calculation = 'scf'
/&end
&system
             ecutwfc = 80
               ibrav = 0
                ntyp = 1
            celldm(1)= 6.7860064
                 nat = 8
/&end
&electrons
            conv_thr = 1.0d-12
/&end
CELL_PARAMETERS { alat }
  0.5000000000   0.0000000000   0.5000000000 
  1.0000000000   1.0000000000   0.0000000000 
  0.0000000000   1.0000000000   1.0000000000 
ATOMIC_SPECIES
   C  12.0107         C.pz-vbc.UPF
ATOMIC_POSITIONS { alat }
  C   0.0000000000   0.0000000000   0.0000000000
  C   0.2500000000   0.2500000000   0.2500000000
  C   0.5000000000   0.5000000000   0.0000000000
  C   0.7500000000   0.7500000000   0.2500000000
  C   0.0000000000   0.5000000000   0.5000000000
  C   0.2500000000   0.7500000000   0.7500000000
  C   0.5000000000   1.0000000000   0.5000000000
  C   0.7500000000   1.2500000000   0.7500000000
K_POINTS { automatic }
 8  4  4  0  0  0
