&input
 fildyn='C.dynG',
 asr='simple',
 fileig='dynmat.eig'
/

