lih_phonons
&inputph
  tr2_ph=1.0d-12,
  prefix='lih',
  outdir='./',
  fildyn='lih.dynG'
  ldisp=.true.
  nq1=1, nq2=1, nq3=1
 /
