&input
    fildyn='lih.dynG'
    zasr='simple', 
    flfrc='lih.fc'
/
