&control
         calculation = 'scf'
          wf_collect = .true.
              prefix = 'diamond_s'
              outdir = './'
          pseudo_dir = '/home/attacc/SOFTWARE/PSEUDO_PWSCF/'
/&end
&system
               ibrav = 0
           celldm(1) = 6.675
                ntyp = 1
                 nat = 4
             ecutwfc = 70
/&end
&electrons
            conv_thr = 1.0d-12
/&end
CELL_PARAMETERS { alat }
  1.0000000000   0.0000000000   1.0000000000 
  0.5000000000   0.5000000000   0.0000000000 
  0.0000000000   0.5000000000   0.5000000000 
ATOMIC_SPECIES
   C  12.0107         C.pz-vbc.UPF
ATOMIC_POSITIONS { alat }
  C   0.0000000000   0.0000000000   0.0000000000
  C   0.2500000000   0.2500000000   0.2500000000
  C   0.5000000000   0.0000000000   0.5000000000
  C   0.7500000000   0.2500000000   0.7500000000
K_POINTS { automatic }
  2  4  4  0  0  0
