&control
         calculation = 'scf'
          wf_collect = .true.
        restart_mode = 'from_scratch'
          pseudo_dir = '/home/attacc/SOFTWARE/PSEUDO_PWSCF'
              prefix = 'bn_s'
              outdir = './'
/&end
&system
               ibrav = 0
                ntyp = 2
                 nat = 32
             ecutwfc = 50.0
/&end
&electrons
         mixing_mode = 'plain'
            conv_thr = 1.0d-10
         mixing_beta = 0.7
/&end
CELL_PARAMETERS { bohr }
  9.4486305000   0.0000000000   0.0000000000 
 -4.7243152500   8.1827540440   0.0000000000 
  0.0000000000   0.0000000000  24.5664393000 
ATOMIC_SPECIES
   B   10.811         B.pz-vbc.UPF
   N   14.006         N.pz-vbc.UPF
ATOMIC_POSITIONS { crystal }
  B   0.3333333333   0.1666666667  -0.1250000000
  N  -0.3333333333  -0.1666666667  -0.1250000000
  N   0.3333333333   0.1666666667   0.1250000000
  B  -0.3333333333  -0.1666666667   0.1250000000
  B   0.8333333333   0.1666666667  -0.1250000000
  N   0.1666666667  -0.1666666667  -0.1250000000
  N   0.8333333333   0.1666666667   0.1250000000
  B   0.1666666667  -0.1666666667   0.1250000000
  B   0.3333333333   0.6666666667  -0.1250000000
  N  -0.3333333333   0.3333333333  -0.1250000000
  N   0.3333333333   0.6666666667   0.1250000000
  B  -0.3333333333   0.3333333333   0.1250000000
  B   0.8333333333   0.6666666667  -0.1250000000
  N   0.1666666667   0.3333333333  -0.1250000000
  N   0.8333333333   0.6666666667   0.1250000000
  B   0.1666666667   0.3333333333   0.1250000000
  B   0.3333333333   0.1666666667   0.3750000000
  N  -0.3333333333  -0.1666666667   0.3750000000
  N   0.3333333333   0.1666666667   0.6250000000
  B  -0.3333333333  -0.1666666667   0.6250000000
  B   0.8333333333   0.1666666667   0.3750000000
  N   0.1666666667  -0.1666666667   0.3750000000
  N   0.8333333333   0.1666666667   0.6250000000
  B   0.1666666667  -0.1666666667   0.6250000000
  B   0.3333333333   0.6666666667   0.3750000000
  N  -0.3333333333   0.3333333333   0.3750000000
  N   0.3333333333   0.6666666667   0.6250000000
  B  -0.3333333333   0.3333333333   0.6250000000
  B   0.8333333333   0.6666666667   0.3750000000
  N   0.1666666667   0.3333333333   0.3750000000
  N   0.8333333333   0.6666666667   0.6250000000
  B   0.1666666667   0.3333333333   0.6250000000
K_POINTS { automatic }
  6  6  2  0  0  0
