&input
 fildyn='bn.dynG5',
 asr='no',
 fileig='dynmat.eig_5'
 filout='dynmat.out_5'
/
