&input
 fildyn='bn.dynG4',
 asr='no',
 fileig='dynmat.eig_4'
 filout='dynmat.out_4'
/
