&input
 fildyn='bn.dynG1',
 asr='crystal'
 fileig='dynmat.eig_1'
 filout='dynmat.out_1'
/
