&input
 fildyn='bn.dynG6',
 asr='no',
 fileig='dynmat.eig_6'
 filout='dynmat.out_6'
/
