&input
    fildyn='bn.dynG'
    zasr='simple', 
    flfrc='bn.fc'
/
