 &control
    calculation='scf'
    pseudo_dir = './',
    prefix='MoS2',
    nstep = 200,
    verbosity = 'high' ,
    wf_collect = .true. ,
 /
 &system
    ibrav = 4, celldm(1)= 5.9526372, celldm(3)=5.0397830393,
    nat= 3, ntyp= 2,
    ecutwfc = 50.0
/
 &electrons
      diago_full_acc=.true. ,
      diagonalization='david'
      mixing_mode = 'plain'
      mixing_beta = 0.6
      conv_thr =  1.0d-8,
/
ATOMIC_SPECIES
  Mo 42 Mo.pbe-mt_fhi.UPF
  S  16 S.pbe-mt_fhi.UPF
ATOMIC_POSITIONS (crystal)
Mo 0.0000000000  0.0000000000  0.0000000000
S  6.6666666666  0.3333333333  0.0977694265
S  0.6666666666  0.3333333333 -0.0977694265
K_POINTS (automatic)
 12 12 1 0 0 0
