&input
    fildyn='MoS2.dynG'
    zasr='simple', 
    flfrc='MoS2.fc'
/
