&input
 fildyn='bn_s.dynG1',
 asr='crystal'
 fileig='dynmat.eig'
/
