bn_phonons
&inputph
  tr2_ph=1.0d-12,
  prefix='bn_s',
  outdir='./',
  fildyn='bn_s.dynG'
  ldisp=.true.
  nq1=1, nq2=1, nq3=1
 /
